% File represents an instance of a Composite Structure problem to be solved by a CP framework
% Created on 2025-03-26 10:41:19.295
T = 50;
n = 9;
m = 12;
edges = [(1, 2),
(4, 5),
(7, 8),
(3, 2),
(5, 6),
(8, 9),
(4, 1),
(4, 7),
(5, 2),
(8, 5),
(3, 6),
(6, 9)];
counts = [|6, 12, 6, 20,
|6, 10, 6, 16,
|6, 10, 6, 22,
|6, 16, 6, 22,
|6, 12, 6, 20,
|6, 10, 6, 20,
|6, 16, 6, 20,
|6, 14, 6, 20,
|6, 10, 6, 18|];
